decision_x1=[0,4];
decision_x2=[0,4];
decision_x3=[0,4];
decision_x4=[0,4];
decision_x5=[0,4];
decision_x6=[0,4];
random_y1=[0,4];
random_y2=[0,4];
random_y3=[0,4];
constraint_x3_x2=[
0,1,5.1|
0,2,0.56|
0,3,5.5|
0,4,3.5|
1,0,5.6|
1,2,6.8|
1,3,4.3|
1,4,0.37|
2,0,9.2|
2,1,4|
2,3,6.5|
2,4,2.4|
3,0,3.5|
3,1,3.6|
3,2,3|
3,4,2.5|
4,0,4.2|
4,1,5.8|
4,2,5.8|
4,3,6.1|
];
constraint_x5_x1=[
0,1,8.7|
0,2,7.2|
0,3,1.1|
0,4,6.9|
1,0,7.6|
1,2,4.8|
1,3,0.11|
1,4,0.35|
2,0,4.4|
2,1,10|
2,3,9.9|
2,4,3.4|
3,0,1.7|
3,1,5|
3,2,7.8|
3,4,2.1|
4,0,6.4|
4,1,4.2|
4,2,4.8|
4,3,6.2|
];
constraint_x5_x2=[
0,1,5.6|
0,2,3.5|
0,3,5.5|
0,4,5.3|
1,0,3.6|
1,2,7.2|
1,3,6.4|
1,4,0.92|
2,0,4.5|
2,1,5.9|
2,3,6.4|
2,4,1.4|
3,0,7.6|
3,1,5.3|
3,2,0.27|
3,4,0.54|
4,0,7.8|
4,1,6.2|
4,2,5.1|
4,3,5.5|
];
constraint_x5_x3=[
0,1,5.2|
0,2,1.2|
0,3,4.3|
0,4,9.9|
1,0,4.2|
1,2,5.3|
1,3,2.3|
1,4,0.81|
2,0,1.1|
2,1,7.4|
2,3,1.7|
2,4,2.9|
3,0,5.5|
3,1,2.6|
3,2,4.6|
3,4,9.7|
4,0,5.7|
4,1,3.6|
4,2,4.5|
4,3,6.2|
];
constraint_x5_x4=[
0,1,9.7|
0,2,10|
0,3,8.5|
0,4,7.6|
1,0,5.8|
1,2,2.7|
1,3,7.2|
1,4,8.4|
2,0,0.72|
2,1,1.3|
2,3,7.2|
2,4,3|
3,0,3.7|
3,1,0.57|
3,2,7.5|
3,4,3.2|
4,0,7.1|
4,1,0.12|
4,2,1.1|
4,3,1|
];
constraint_x6_x2=[
0,1,8.3|
0,2,8.1|
0,3,0.31|
0,4,4.9|
1,0,1.9|
1,2,0.44|
1,3,6.9|
1,4,9.8|
2,0,8.2|
2,1,2.8|
2,3,4.9|
2,4,0.27|
3,0,0.68|
3,1,5.9|
3,2,1.5|
3,4,0.28|
4,0,1.3|
4,1,5.3|
4,2,3.3|
4,3,2.8|
];
constraint_x6_x3=[
0,1,8.7|
0,2,0.3|
0,3,8.8|
0,4,8|
1,0,7.5|
1,2,1.1|
1,3,0.43|
1,4,5.3|
2,0,6.8|
2,1,5.7|
2,3,6|
2,4,2.6|
3,0,4.6|
3,1,2.9|
3,2,0.051|
3,4,3|
4,0,4.9|
4,1,5.8|
4,2,7.2|
4,3,5.6|
];
constraint_x6_x5=[
0,1,4.5|
0,2,4.1|
0,3,7.3|
0,4,8|
1,0,7|
1,2,3.2|
1,3,9.3|
1,4,6.8|
2,0,2.3|
2,1,8.2|
2,3,5.7|
2,4,0.56|
3,0,2.8|
3,1,9.4|
3,2,4.9|
3,4,9.9|
4,0,2.8|
4,1,7|
4,2,9.8|
4,3,5.3|
];
constraint_x1_y1=[
0,0,7.7|
0,1,9.1|
0,2,2|
0,3,2.1|
0,4,2.6|
1,0,7.8|
1,1,3.4|
1,2,9.5|
1,3,8.2|
1,4,2.5|
2,0,8|
2,1,2.6|
2,2,8.7|
2,3,4.2|
2,4,8.3|
3,0,5.4|
3,1,10|
3,2,3.7|
3,3,7.4|
3,4,5.6|
4,0,5|
4,1,7.9|
4,2,3.3|
4,3,5.9|
4,4,5.6|
];
constraint_x2_y2=[
0,0,4.7|
0,1,8.9|
0,2,2.9|
0,3,4|
0,4,5.6|
1,0,8.4|
1,1,7.6|
1,2,6.4|
1,3,2.8|
1,4,8.9|
2,0,5|
2,1,5.2|
2,2,4.2|
2,3,4.8|
2,4,7.3|
3,0,6.3|
3,1,6.3|
3,2,2.6|
3,3,7.2|
3,4,3.7|
4,0,1.5|
4,1,6.4|
4,2,6.5|
4,3,0.83|
4,4,6.4|
];
constraint_x3_y3=[
0,0,9.7|
0,1,1.8|
0,2,2.1|
0,3,2.3|
0,4,0.39|
1,0,4.1|
1,1,6|
1,2,1.5|
1,3,9.4|
1,4,2.8|
2,0,8.6|
2,1,2.7|
2,2,3.1|
2,3,4.6|
2,4,1.9|
3,0,2.1|
3,1,6.9|
3,2,4.6|
3,3,6.7|
3,4,4.6|
4,0,1.2|
4,1,7.4|
4,2,4.1|
4,3,8.5|
4,4,4.2|
];
initial_distribution_y1=[0.42,0.08,0.27,0.19,0.038];
initial_distribution_y2=[0.36,0.011,0.12,0.31,0.2];
initial_distribution_y3=[0.03,0.01,0.37,0.28,0.31];
transition_y1=[
0.25,0.27,0.16,0.3,0.015|
0.15,0.14,0.36,0.22,0.12|
0.25,0.19,0.31,0.23,0.027|
0.17,0.3,0.31,0.084,0.13|
0.35,0.06,0.32,0.23,0.044|
];
transition_y2=[
0.16,0.27,0.15,0.16,0.26|
0.12,0.025,0.22,0.18,0.46|
0.39,0.06,0.22,0.058,0.28|
0.24,0.23,0.011,0.38,0.14|
0.26,0.17,0.28,0.19,0.1|
];
transition_y3=[
0.11,0.24,0.25,0.15,0.24|
0.25,0.22,0.23,0.14,0.15|
0.27,0.22,0.35,0.09,0.072|
0.15,0.29,0.14,0.2,0.22|
0.27,0.21,0.2,0.24,0.078|
];
